NODE_COUNT_SECTION
20
END_SECTION
VEHICLE_CAP_SECTION
160
END_SECTION
NODE_COORD_SECTION
0 30 40
1 37 52
2 49 49
3 52 64
4 31 62
5 52 33
6 42 41
7 52 41
8 57 58
9 62 42
10 42 57
11 27 68
12 43 67
13 58 48
14 58 27
15 37 69
16 61 33
17 62 63
18 63 69
19 45 35
END_SECTION
NODE_DEMAND_SECTION
0 0
1 19
2 30
3 16
4 23
5 11
6 31
7 15
8 28
9 8
10 8
11 7
12 14
13 6
14 19
15 11
16 26
17 17
18 6
19 15
END_SECTION
NODE_BASE_SECTION
0
END_SECTION
END_FILE
